Solver command line: ['C:\\Program Files\\IBM\\ILOG\\CPLEX_Studio2211\\cplex\\bin\\x64_win64\\cplex.exe']


Welcome to IBM(R) ILOG(R) CPLEX(R) Interactive Optimizer 22.1.1.0
  with Simplex, Mixed Integer & Barrier Optimizers
5725-A06 5725-A29 5724-Y48 5724-Y49 5724-Y54 5724-Y55 5655-Y21
Copyright IBM Corp. 1988, 2022.  All Rights Reserved.

Type 'help' for a list of available commands.
Type 'help' followed by a command name for more
information on commands.

CPLEX> Logfile 'cplex.log' closed.
Logfile 'C:\Users\wangy\Documents\GitHub\re_optimization\result_site_specific\tmpltqy3zvr.cplex.log' open.
CPLEX> Problem 'C:\Users\wangy\Documents\GitHub\re_optimization\result_site_specific\tmp9p4jnp4h.pyomo.lp' read.
Read time = 0.30 sec. (9.13 ticks)
CPLEX> Problem name         : C:\Users\wangy\Documents\GitHub\re_optimization\result_site_specific\tmp9p4jnp4h.pyomo.lp
Objective sense      : Minimize
Variables            :   65769  [Nneg: 35068,  Free: 8792,  Binary: 9,
                                 Other: 21900]
Objective nonzeros   :      17
Linear constraints   :   87665  [Less: 46741,  Greater: 5,  Equal: 40919]
  Nonzeros           :  225108
  RHS nonzeros       :    3498

Variables            : Min LB: 0.000000         Max UB: 1.000000       
Objective nonzeros   : Min   : 1.000000         Max   : 1.000000       
Linear constraints   :
  Nonzeros           : Min   : 0.0005703382     Max   : 100000.0       
  RHS nonzeros       : Min   : 0.3790000        Max   : 100000.0       
CPLEX> Version identifier: 22.1.1.0 | 2022-11-27 | 9160aff4d
Tried aggregator 3 times.
MIP Presolve eliminated 53716 rows and 33274 columns.
Aggregator did 10505 substitutions.
Reduced MIP has 23444 rows, 21990 columns, and 70190 nonzeros.
Reduced MIP has 5 binaries, 0 generals, 0 SOSs, and 0 indicators.
Presolve time = 0.19 sec. (224.63 ticks)
Found incumbent of value 699546.537921 after 0.30 sec. (319.01 ticks)
Probing time = 0.00 sec. (1.22 ticks)
Tried aggregator 1 time.
Detecting symmetries...
Reduced MIP has 23444 rows, 21990 columns, and 70190 nonzeros.
Reduced MIP has 5 binaries, 0 generals, 0 SOSs, and 0 indicators.
Presolve time = 0.05 sec. (43.99 ticks)
Probing time = 0.00 sec. (1.14 ticks)
MIP emphasis: balance optimality and feasibility.
MIP search method: dynamic search.
Parallel mode: deterministic, using up to 16 threads.
Root relaxation solution time = 1.09 sec. (843.31 ticks)

        Nodes                                         Cuts/
   Node  Left     Objective  IInf  Best Integer    Best Bound    ItCnt     Gap

*     0+    0                       699546.5379   -57467.8262           108.22%
*     0+    0                        37055.0597   -57467.8262           255.09%
      0     0    34170.9366     1    37055.0597    34170.9366       64    7.78%
*     0+    0                        35774.9300    34170.9366             4.48%
      0     0        cutoff          35774.9300                    242    0.00%
Elapsed time = 1.72 sec. (1521.79 ticks, tree = 0.01 MB, solutions = 3)

Root node processing (before b&c):
  Real time             =    1.72 sec. (1524.95 ticks)
Parallel b&c, 16 threads:
  Real time             =    0.00 sec. (0.00 ticks)
  Sync time (average)   =    0.00 sec.
  Wait time (average)   =    0.00 sec.
                          ------------
Total (root+branch&cut) =    1.72 sec. (1524.95 ticks)

Solution pool: 3 solutions saved.

MIP - Integer optimal solution:  Objective =  3.5774929986e+04
Solution time =    1.72 sec.  Iterations = 242  Nodes = 0
Deterministic time = 1525.14 ticks  (887.74 ticks/sec)

CPLEX> Incumbent solution written to file 'C:\Users\wangy\Documents\GitHub\re_optimization\result_site_specific\tmp_cb0kwyn.cplex.sol'.
CPLEX> 
